(set-logic HORN)
(declare-datatypes ((Nat_1 0)) (((Z_0 ) (S_0 (unS_0 Nat_1)))))
(declare-fun diseqNat_0 (Nat_1 Nat_1) Bool)
(declare-fun unS_1 (Nat_1 Nat_1) Bool)
(declare-fun isZ_0 (Nat_1) Bool)
(declare-fun isS_0 (Nat_1) Bool)
(assert (forall ((x_45 Nat_1) (x_44 Nat_1))
	(=> (= x_45 (S_0 x_44))
	    (unS_1 x_44 x_45))))
(assert (isZ_0 Z_0))
(assert (forall ((x_46 Nat_1))
	(isS_0 (S_0 x_46))))
(assert (forall ((x_47 Nat_1))
	(diseqNat_0 Z_0 (S_0 x_47))))
(assert (forall ((x_48 Nat_1))
	(diseqNat_0 (S_0 x_48) Z_0)))
(assert (forall ((x_49 Nat_1) (x_50 Nat_1))
	(=> (diseqNat_0 x_49 x_50)
	    (diseqNat_0 (S_0 x_49) (S_0 x_50)))))
(declare-fun add_1 (Nat_1 Nat_1 Nat_1) Bool)
(declare-fun minus_0 (Nat_1 Nat_1 Nat_1) Bool)
(declare-fun le_0 (Nat_1 Nat_1) Bool)
(declare-fun ge_0 (Nat_1 Nat_1) Bool)
(declare-fun lt_0 (Nat_1 Nat_1) Bool)
(declare-fun gt_0 (Nat_1 Nat_1) Bool)
(declare-fun mult_0 (Nat_1 Nat_1 Nat_1) Bool)
(declare-fun div_0 (Nat_1 Nat_1 Nat_1) Bool)
(declare-fun mod_0 (Nat_1 Nat_1 Nat_1) Bool)
(assert (forall ((y_6 Nat_1))
	(add_1 y_6 Z_0 y_6)))
(assert (forall ((x_42 Nat_1) (y_6 Nat_1) (r_2 Nat_1))
	(=> (add_1 r_2 x_42 y_6)
	    (add_1 (S_0 r_2) (S_0 x_42) y_6))))
(assert (forall ((y_6 Nat_1))
	(minus_0 Z_0 Z_0 y_6)))
(assert (forall ((x_42 Nat_1) (y_6 Nat_1) (r_2 Nat_1))
	(=> (minus_0 r_2 x_42 y_6)
	    (minus_0 (S_0 r_2) (S_0 x_42) y_6))))
(assert (forall ((y_6 Nat_1))
	(le_0 Z_0 y_6)))
(assert (forall ((x_42 Nat_1) (y_6 Nat_1))
	(=> (le_0 x_42 y_6)
	    (le_0 (S_0 x_42) (S_0 y_6)))))
(assert (forall ((y_6 Nat_1))
	(ge_0 y_6 Z_0)))
(assert (forall ((x_42 Nat_1) (y_6 Nat_1))
	(=> (ge_0 x_42 y_6)
	    (ge_0 (S_0 x_42) (S_0 y_6)))))
(assert (forall ((y_6 Nat_1))
	(lt_0 Z_0 (S_0 y_6))))
(assert (forall ((x_42 Nat_1) (y_6 Nat_1))
	(=> (lt_0 x_42 y_6)
	    (lt_0 (S_0 x_42) (S_0 y_6)))))
(assert (forall ((y_6 Nat_1))
	(gt_0 (S_0 y_6) Z_0)))
(assert (forall ((x_42 Nat_1) (y_6 Nat_1))
	(=> (gt_0 x_42 y_6)
	    (gt_0 (S_0 x_42) (S_0 y_6)))))
(assert (forall ((y_6 Nat_1))
	(mult_0 Z_0 Z_0 y_6)))
(assert (forall ((x_42 Nat_1) (y_6 Nat_1) (r_2 Nat_1) (z_4 Nat_1))
	(=>	(and (mult_0 r_2 x_42 y_6)
			(add_1 z_4 r_2 y_6))
		(mult_0 z_4 (S_0 x_42) y_6))))
(assert (forall ((x_42 Nat_1) (y_6 Nat_1))
	(=> (lt_0 x_42 y_6)
	    (div_0 Z_0 x_42 y_6))))
(assert (forall ((x_42 Nat_1) (y_6 Nat_1) (r_2 Nat_1) (z_4 Nat_1))
	(=>	(and (ge_0 x_42 y_6)
			(minus_0 z_4 x_42 y_6)
			(div_0 r_2 z_4 y_6))
		(div_0 (S_0 r_2) x_42 y_6))))
(assert (forall ((x_42 Nat_1) (y_6 Nat_1))
	(=> (lt_0 x_42 y_6)
	    (mod_0 x_42 x_42 y_6))))
(assert (forall ((x_42 Nat_1) (y_6 Nat_1) (r_2 Nat_1) (z_4 Nat_1))
	(=>	(and (ge_0 x_42 y_6)
			(minus_0 z_4 x_42 y_6)
			(mod_0 r_2 z_4 y_6))
		(mod_0 r_2 x_42 y_6))))
(declare-datatypes ((Nat_0 0)) (((zero_0 ) (succ_0 (p_0 Nat_0)))))
(declare-fun diseqNat_1 (Nat_0 Nat_0) Bool)
(declare-fun p_1 (Nat_0 Nat_0) Bool)
(declare-fun iszero_0 (Nat_0) Bool)
(declare-fun issucc_0 (Nat_0) Bool)
(assert (forall ((x_53 Nat_0) (x_52 Nat_0))
	(=> (= x_53 (succ_0 x_52))
	    (p_1 x_52 x_53))))
(assert (iszero_0 zero_0))
(assert (forall ((x_54 Nat_0))
	(issucc_0 (succ_0 x_54))))
(assert (forall ((x_55 Nat_0))
	(diseqNat_1 zero_0 (succ_0 x_55))))
(assert (forall ((x_56 Nat_0))
	(diseqNat_1 (succ_0 x_56) zero_0)))
(assert (forall ((x_57 Nat_0) (x_58 Nat_0))
	(=> (diseqNat_1 x_57 x_58)
	    (diseqNat_1 (succ_0 x_57) (succ_0 x_58)))))
(declare-datatypes ((Tree_0 0)) (((TNode_0 (projTNode_0 Tree_0) (projTNode_1 Nat_0) (projTNode_2 Tree_0)) (TNil_0 ))))
(declare-fun diseqTree_0 (Tree_0 Tree_0) Bool)
(declare-fun projTNode_3 (Tree_0 Tree_0) Bool)
(declare-fun projTNode_4 (Nat_0 Tree_0) Bool)
(declare-fun projTNode_5 (Tree_0 Tree_0) Bool)
(declare-fun isTNode_0 (Tree_0) Bool)
(declare-fun isTNil_0 (Tree_0) Bool)
(assert (forall ((x_62 Tree_0) (x_59 Tree_0) (x_60 Nat_0) (x_61 Tree_0))
	(=> (= x_62 (TNode_0 x_59 x_60 x_61))
	    (projTNode_3 x_59 x_62))))
(assert (forall ((x_62 Tree_0) (x_59 Tree_0) (x_60 Nat_0) (x_61 Tree_0))
	(=> (= x_62 (TNode_0 x_59 x_60 x_61))
	    (projTNode_4 x_60 x_62))))
(assert (forall ((x_62 Tree_0) (x_59 Tree_0) (x_60 Nat_0) (x_61 Tree_0))
	(=> (= x_62 (TNode_0 x_59 x_60 x_61))
	    (projTNode_5 x_61 x_62))))
(assert (forall ((x_64 Tree_0) (x_65 Nat_0) (x_66 Tree_0))
	(isTNode_0 (TNode_0 x_64 x_65 x_66))))
(assert (isTNil_0 TNil_0))
(assert (forall ((x_67 Tree_0) (x_68 Nat_0) (x_69 Tree_0))
	(diseqTree_0 (TNode_0 x_67 x_68 x_69) TNil_0)))
(assert (forall ((x_70 Tree_0) (x_71 Nat_0) (x_72 Tree_0))
	(diseqTree_0 TNil_0 (TNode_0 x_70 x_71 x_72))))
(assert (forall ((x_73 Tree_0) (x_74 Nat_0) (x_75 Tree_0) (x_76 Tree_0) (x_77 Nat_0) (x_78 Tree_0))
	(=> (diseqTree_0 x_73 x_76)
	    (diseqTree_0 (TNode_0 x_73 x_74 x_75) (TNode_0 x_76 x_77 x_78)))))
(assert (forall ((x_73 Tree_0) (x_74 Nat_0) (x_75 Tree_0) (x_76 Tree_0) (x_77 Nat_0) (x_78 Tree_0))
	(=> (diseqNat_1 x_74 x_77)
	    (diseqTree_0 (TNode_0 x_73 x_74 x_75) (TNode_0 x_76 x_77 x_78)))))
(assert (forall ((x_73 Tree_0) (x_74 Nat_0) (x_75 Tree_0) (x_76 Tree_0) (x_77 Nat_0) (x_78 Tree_0))
	(=> (diseqTree_0 x_75 x_78)
	    (diseqTree_0 (TNode_0 x_73 x_74 x_75) (TNode_0 x_76 x_77 x_78)))))
(declare-datatypes ((list_0 0)) (((nil_0 ) (cons_0 (head_0 Nat_0) (tail_0 list_0)))))
(declare-fun diseqlist_0 (list_0 list_0) Bool)
(declare-fun head_1 (Nat_0 list_0) Bool)
(declare-fun tail_1 (list_0 list_0) Bool)
(declare-fun isnil_0 (list_0) Bool)
(declare-fun iscons_0 (list_0) Bool)
(assert (forall ((x_82 list_0) (x_80 Nat_0) (x_81 list_0))
	(=> (= x_82 (cons_0 x_80 x_81))
	    (head_1 x_80 x_82))))
(assert (forall ((x_82 list_0) (x_80 Nat_0) (x_81 list_0))
	(=> (= x_82 (cons_0 x_80 x_81))
	    (tail_1 x_81 x_82))))
(assert (isnil_0 nil_0))
(assert (forall ((x_83 Nat_0) (x_84 list_0))
	(iscons_0 (cons_0 x_83 x_84))))
(assert (forall ((x_85 Nat_0) (x_86 list_0))
	(diseqlist_0 nil_0 (cons_0 x_85 x_86))))
(assert (forall ((x_87 Nat_0) (x_88 list_0))
	(diseqlist_0 (cons_0 x_87 x_88) nil_0)))
(assert (forall ((x_89 Nat_0) (x_90 list_0) (x_91 Nat_0) (x_92 list_0))
	(=> (diseqNat_1 x_89 x_91)
	    (diseqlist_0 (cons_0 x_89 x_90) (cons_0 x_91 x_92)))))
(assert (forall ((x_89 Nat_0) (x_90 list_0) (x_91 Nat_0) (x_92 list_0))
	(=> (diseqlist_0 x_90 x_92)
	    (diseqlist_0 (cons_0 x_89 x_90) (cons_0 x_91 x_92)))))
(declare-fun leq_0 (Bool Nat_0 Nat_0) Bool)
(assert (forall ((x_0 Nat_0) (y_0 Nat_0) (z_0 Nat_0) (x_1 Nat_0) (x_8 Bool) (x_9 Bool))
	(=>	(and (= x_8 x_9)
			(leq_0 x_9 z_0 x_1)
			(= x_0 (succ_0 z_0))
			(= y_0 (succ_0 x_1)))
		(leq_0 x_8 x_0 y_0))))
(assert (forall ((x_0 Nat_0) (y_0 Nat_0) (z_0 Nat_0) (x_10 Bool))
	(=>	(and (= x_10 false)
			(= x_0 (succ_0 z_0))
			(= y_0 zero_0))
		(leq_0 x_10 x_0 y_0))))
(assert (forall ((x_0 Nat_0) (y_0 Nat_0) (x_11 Bool))
	(=>	(and (= x_11 true)
			(= x_0 zero_0))
		(leq_0 x_11 x_0 y_0))))
(declare-fun insert_0 (list_0 Nat_0 list_0) Bool)
(assert (forall ((x_2 Nat_0) (y_1 list_0) (z_1 Nat_0) (xs_0 list_0) (x_13 list_0) (x_12 Bool))
	(=>	(and (= x_13 (cons_0 x_2 (cons_0 z_1 xs_0)))
			(= y_1 (cons_0 z_1 xs_0))
			(= x_12 true)
			(leq_0 x_12 x_2 z_1))
		(insert_0 x_13 x_2 y_1))))
(assert (forall ((x_2 Nat_0) (y_1 list_0) (z_1 Nat_0) (xs_0 list_0) (x_15 list_0) (x_16 list_0) (x_14 Bool))
	(=>	(and (= x_15 (cons_0 z_1 x_16))
			(insert_0 x_16 x_2 xs_0)
			(= y_1 (cons_0 z_1 xs_0))
			(= x_14 false)
			(leq_0 x_14 x_2 z_1))
		(insert_0 x_15 x_2 y_1))))
(assert (forall ((x_2 Nat_0) (y_1 list_0) (x_17 list_0))
	(=>	(and (= x_17 (cons_0 x_2 nil_0))
			(= y_1 nil_0))
		(insert_0 x_17 x_2 y_1))))
(declare-fun isort_0 (list_0 list_0) Bool)
(assert (forall ((x_3 list_0) (y_2 Nat_0) (xs_1 list_0) (x_18 list_0) (x_19 list_0) (x_20 list_0))
	(=>	(and (= x_18 x_20)
			(isort_0 x_19 xs_1)
			(insert_0 x_20 y_2 x_19)
			(= x_3 (cons_0 y_2 xs_1)))
		(isort_0 x_18 x_3))))
(assert (forall ((x_3 list_0) (x_21 list_0))
	(=>	(and (= x_21 nil_0)
			(= x_3 nil_0))
		(isort_0 x_21 x_3))))
(declare-fun flatten_0 (list_0 Tree_0 list_0) Bool)
(assert (forall ((x_4 Tree_0) (y_3 list_0) (x_22 list_0))
	(=>	(and (= x_22 y_3)
			(= x_4 TNil_0))
		(flatten_0 x_22 x_4 y_3))))
(assert (forall ((x_4 Tree_0) (y_3 list_0) (q_0 Tree_0) (z_2 Nat_0) (r_0 Tree_0) (x_23 list_0) (x_24 list_0) (x_25 list_0))
	(=>	(and (= x_23 x_25)
			(flatten_0 x_24 r_0 y_3)
			(flatten_0 x_25 q_0 (cons_0 z_2 x_24))
			(= x_4 (TNode_0 q_0 z_2 r_0)))
		(flatten_0 x_23 x_4 y_3))))
(declare-fun add_0 (Tree_0 Nat_0 Tree_0) Bool)
(assert (forall ((x_5 Nat_0) (y_4 Tree_0) (x_26 Tree_0))
	(=>	(and (= x_26 (TNode_0 TNil_0 x_5 TNil_0))
			(= y_4 TNil_0))
		(add_0 x_26 x_5 y_4))))
(assert (forall ((x_5 Nat_0) (y_4 Tree_0) (q_1 Tree_0) (z_3 Nat_0) (r_1 Tree_0) (x_28 Tree_0) (x_29 Tree_0) (x_27 Bool))
	(=>	(and (= x_28 (TNode_0 x_29 z_3 r_1))
			(add_0 x_29 x_5 q_1)
			(= y_4 (TNode_0 q_1 z_3 r_1))
			(= x_27 true)
			(leq_0 x_27 x_5 z_3))
		(add_0 x_28 x_5 y_4))))
(assert (forall ((x_5 Nat_0) (y_4 Tree_0) (q_1 Tree_0) (z_3 Nat_0) (r_1 Tree_0) (x_31 Tree_0) (x_32 Tree_0) (x_30 Bool))
	(=>	(and (= x_31 (TNode_0 q_1 z_3 x_32))
			(add_0 x_32 x_5 r_1)
			(= y_4 (TNode_0 q_1 z_3 r_1))
			(= x_30 false)
			(leq_0 x_30 x_5 z_3))
		(add_0 x_31 x_5 y_4))))
(declare-fun toTree_0 (Tree_0 list_0) Bool)
(assert (forall ((x_6 list_0) (y_5 Nat_0) (xs_2 list_0) (x_33 Tree_0) (x_34 Tree_0) (x_35 Tree_0))
	(=>	(and (= x_33 x_35)
			(toTree_0 x_34 xs_2)
			(add_0 x_35 y_5 x_34)
			(= x_6 (cons_0 y_5 xs_2)))
		(toTree_0 x_33 x_6))))
(assert (forall ((x_6 list_0) (x_36 Tree_0))
	(=>	(and (= x_36 TNil_0)
			(= x_6 nil_0))
		(toTree_0 x_36 x_6))))
(declare-fun tsort_0 (list_0 list_0) Bool)
(assert (forall ((x_7 list_0) (x_37 list_0) (x_38 Tree_0) (x_39 list_0))
	(=>	(and (= x_37 x_39)
			(toTree_0 x_38 x_7)
			(flatten_0 x_39 x_38 nil_0))
		(tsort_0 x_37 x_7))))
(assert (forall ((xs_3 list_0) (x_40 list_0) (x_41 list_0))
	(=>	(and (diseqlist_0 x_40 x_41)
			(tsort_0 x_40 xs_3)
			(isort_0 x_41 xs_3))
		false)))
(check-sat)
